c Created with the Wolfram Language : www.wolfram.com
c 
p edge 100 522
e 2 4
e 3 6
e 2 7
e 5 7
e 5 8
e 5 9
e 6 9
e 3 11
e 6 12
e 6 14
e 10 17
e 16 17
e 14 18
e 1 19
e 7 19
e 13 20
e 15 20
e 16 20
e 18 21
e 1 22
e 4 22
e 6 22
e 11 22
e 12 22
e 13 22
e 3 23
e 5 23
e 8 23
e 16 23
e 22 23
e 10 24
e 19 24
e 21 24
e 10 25
e 20 25
e 4 26
e 6 26
e 24 26
e 9 27
e 24 27
e 1 28
e 4 28
e 24 28
e 4 29
e 24 29
e 10 30
e 19 30
e 23 30
e 29 30
e 7 31
e 21 31
e 30 31
e 5 32
e 8 32
e 14 32
e 20 32
e 7 33
e 12 33
e 13 33
e 15 33
e 30 33
e 3 34
e 9 34
e 28 35
e 31 35
e 12 36
e 15 36
e 27 36
e 31 36
e 9 37
e 16 37
e 19 37
e 20 37
e 34 37
e 4 38
e 11 38
e 22 38
e 34 38
e 13 39
e 24 39
e 13 40
e 25 40
e 29 40
e 31 40
e 5 41
e 6 42
e 10 42
e 11 42
e 13 42
e 14 42
e 20 42
e 23 42
e 39 42
e 8 43
e 31 43
e 36 43
e 10 44
e 13 44
e 34 44
e 40 44
e 1 45
e 5 45
e 8 46
e 21 46
e 24 46
e 38 46
e 12 47
e 18 47
e 41 47
e 20 48
e 4 49
e 15 49
e 22 49
e 26 49
e 28 49
e 32 49
e 46 49
e 3 50
e 10 50
e 16 50
e 22 50
e 1 51
e 22 51
e 28 51
e 36 51
e 47 51
e 19 52
e 20 52
e 26 52
e 29 52
e 36 52
e 37 52
e 40 52
e 27 53
e 28 53
e 29 53
e 38 53
e 51 53
e 26 54
e 29 54
e 37 54
e 48 54
e 14 55
e 16 55
e 24 55
e 27 55
e 52 55
e 46 56
e 55 56
e 2 57
e 11 57
e 13 57
e 14 57
e 28 57
e 30 57
e 32 57
e 45 57
e 12 58
e 13 58
e 25 58
e 31 58
e 50 58
e 54 58
e 55 58
e 1 59
e 2 59
e 6 59
e 13 59
e 26 59
e 30 59
e 33 59
e 50 59
e 8 60
e 10 60
e 39 60
e 45 60
e 51 60
e 20 61
e 2 62
e 13 62
e 17 62
e 18 62
e 23 62
e 27 62
e 30 62
e 10 63
e 16 63
e 20 63
e 24 63
e 25 63
e 26 63
e 31 63
e 46 63
e 4 64
e 6 64
e 15 64
e 18 64
e 25 64
e 26 64
e 35 64
e 53 64
e 55 64
e 22 65
e 56 65
e 63 65
e 4 66
e 21 66
e 24 66
e 53 66
e 64 66
e 24 67
e 29 67
e 34 67
e 39 67
e 49 67
e 55 67
e 61 67
e 3 68
e 4 68
e 6 68
e 19 68
e 20 68
e 24 68
e 34 68
e 56 68
e 5 69
e 10 69
e 26 69
e 28 69
e 43 69
e 54 69
e 62 69
e 17 70
e 26 70
e 42 70
e 60 70
e 62 70
e 2 71
e 13 71
e 46 71
e 58 71
e 59 71
e 68 71
e 8 72
e 9 72
e 17 72
e 22 72
e 24 72
e 32 72
e 38 72
e 41 72
e 43 72
e 44 72
e 47 72
e 48 72
e 55 72
e 70 72
e 4 73
e 16 73
e 37 73
e 38 73
e 43 73
e 62 73
e 71 73
e 3 74
e 16 74
e 28 74
e 32 74
e 37 74
e 40 74
e 48 74
e 59 74
e 61 74
e 63 74
e 73 74
e 1 75
e 5 75
e 16 75
e 25 75
e 30 75
e 43 75
e 45 75
e 53 75
e 57 75
e 60 75
e 65 75
e 72 75
e 21 76
e 45 76
e 46 76
e 48 76
e 56 76
e 67 76
e 72 76
e 2 77
e 5 77
e 17 77
e 18 77
e 20 77
e 23 77
e 28 77
e 30 77
e 31 77
e 33 77
e 42 77
e 45 77
e 49 77
e 74 77
e 8 78
e 13 78
e 26 78
e 38 78
e 58 78
e 65 78
e 70 78
e 9 79
e 15 79
e 16 79
e 21 79
e 29 79
e 34 79
e 46 79
e 54 79
e 61 79
e 62 79
e 70 79
e 76 79
e 27 80
e 36 80
e 37 80
e 45 80
e 74 80
e 77 80
e 78 80
e 25 81
e 37 81
e 39 81
e 53 81
e 54 81
e 61 81
e 64 81
e 69 81
e 70 81
e 76 81
e 80 81
e 7 82
e 29 82
e 39 82
e 65 82
e 69 82
e 70 82
e 4 83
e 9 83
e 14 83
e 35 83
e 45 83
e 51 83
e 70 83
e 71 83
e 73 83
e 78 83
e 6 84
e 18 84
e 29 84
e 44 84
e 58 84
e 74 84
e 75 84
e 1 85
e 18 85
e 20 85
e 23 85
e 35 85
e 39 85
e 54 85
e 79 85
e 20 86
e 28 86
e 29 86
e 30 86
e 32 86
e 41 86
e 47 86
e 65 86
e 11 87
e 19 87
e 34 87
e 38 87
e 46 87
e 53 87
e 58 87
e 61 87
e 80 87
e 8 88
e 41 88
e 45 88
e 52 88
e 56 88
e 61 88
e 63 88
e 68 88
e 72 88
e 6 89
e 32 89
e 34 89
e 62 89
e 76 89
e 88 89
e 18 90
e 36 90
e 39 90
e 66 90
e 69 90
e 76 90
e 78 90
e 85 90
e 8 91
e 26 91
e 28 91
e 33 91
e 51 91
e 57 91
e 64 91
e 71 91
e 86 91
e 3 92
e 6 92
e 7 92
e 8 92
e 9 92
e 18 92
e 33 92
e 38 92
e 51 92
e 53 92
e 60 92
e 63 92
e 17 93
e 19 93
e 30 93
e 34 93
e 40 93
e 43 93
e 59 93
e 72 93
e 83 93
e 86 93
e 89 93
e 92 93
e 10 94
e 33 94
e 37 94
e 52 94
e 57 94
e 68 94
e 71 94
e 73 94
e 81 94
e 86 94
e 92 94
e 4 95
e 35 95
e 56 95
e 65 95
e 68 95
e 84 95
e 93 95
e 6 96
e 10 96
e 11 96
e 15 96
e 20 96
e 28 96
e 50 96
e 51 96
e 62 96
e 64 96
e 69 96
e 71 96
e 84 96
e 3 97
e 15 97
e 22 97
e 26 97
e 28 97
e 37 97
e 52 97
e 59 97
e 78 97
e 83 97
e 4 98
e 43 98
e 45 98
e 56 98
e 86 98
e 87 98
e 89 98
e 90 98
e 92 98
e 93 98
e 34 99
e 36 99
e 63 99
e 77 99
e 78 99
e 90 99
e 91 99
e 98 99
e 6 100
e 7 100
e 10 100
e 13 100
e 20 100
e 29 100
e 31 100
e 41 100
e 56 100
e 58 100
e 60 100
e 61 100
e 62 100
e 88 100
